====================================================================================================================
File name: 100_20_22_15.def
Creation date: Mon Nov 24 20:40:29 CET 2014
Website: http://imopse.ii.pwr.edu.pl/
Reference:
Myszkowski P. B., Skowronski M. E., Olech L., Oslizlo K.,
Hybrid Ant Colony Optimization in solving Multi-Skill Resource-Constrained Project Scheduling Problem,
Soft Computing, DOI: DOI 10.1007/s00500-014-1455-x
====================================================================================================================
General characteristics:
Tasks: 100
Resources: 20
Precedence relations: 22
Number of skill types: 15
====================================================================================================================
ResourceID 	 Salary 	 Skills
1	 	 	32.2	 	 Q0: 1 	  Q2: 0 	  Q11: 1 	  Q12: 1 	  Q10: 1 	  Q6: 2
2	 	 	16.1	 	 Q7: 1 	  Q8: 0 	  Q13: 0 	  Q1: 1 	  Q9: 0 	  Q3: 1
3	 	 	22.4	 	 Q10: 2 	  Q1: 0 	  Q4: 1 	  Q8: 2 	  Q14: 1 	  Q6: 2
4	 	 	29.9	 	 Q10: 0 	  Q1: 0 	  Q6: 2 	  Q3: 0 	  Q2: 2 	  Q5: 0
5	 	 	32.2	 	 Q0: 1 	  Q13: 1 	  Q10: 0 	  Q2: 1 	  Q12: 2 	  Q8: 1
6	 	 	97.6	 	 Q5: 1 	  Q11: 0 	  Q0: 1 	  Q14: 0 	  Q9: 0 	  Q6: 2
7	 	 	80.2	 	 Q4: 1 	  Q3: 2 	  Q8: 2 	  Q6: 0 	  Q9: 1 	  Q7: 0
8	 	 	13.3	 	 Q0: 1 	  Q10: 1 	  Q7: 2 	  Q12: 2 	  Q8: 1 	  Q4: 0
9	 	 	71.2	 	 Q13: 0 	  Q3: 1 	  Q7: 1 	  Q0: 2 	  Q5: 2 	  Q10: 0
10	 	 	97.1	 	 Q5: 1 	  Q1: 1 	  Q6: 2 	  Q14: 2 	  Q11: 2 	  Q12: 0
11	 	 	19.8	 	 Q11: 0 	  Q1: 1 	  Q13: 2 	  Q14: 1 	  Q0: 0 	  Q6: 1
12	 	 	61.2	 	 Q7: 0 	  Q8: 0 	  Q2: 1 	  Q11: 0 	  Q3: 2 	  Q12: 1
13	 	 	31.1	 	 Q5: 2 	  Q4: 2 	  Q12: 1 	  Q10: 2 	  Q9: 0 	  Q0: 1
14	 	 	78.9	 	 Q2: 0 	  Q3: 2 	  Q12: 1 	  Q11: 2 	  Q0: 0 	  Q10: 0
15	 	 	17.6	 	 Q10: 1 	  Q14: 1 	  Q6: 1 	  Q11: 0 	  Q8: 2 	  Q4: 2
16	 	 	81.3	 	 Q8: 1 	  Q3: 1 	  Q2: 2 	  Q12: 0 	  Q9: 0 	  Q14: 2
17	 	 	29.3	 	 Q8: 0 	  Q11: 1 	  Q0: 2 	  Q12: 1 	  Q2: 2 	  Q14: 1
18	 	 	24.3	 	 Q5: 0 	  Q1: 1 	  Q6: 1 	  Q4: 1 	  Q9: 1 	  Q7: 0
19	 	 	91.5	 	 Q12: 1 	  Q8: 1 	  Q9: 2 	  Q3: 0 	  Q5: 1 	  Q2: 0
20	 	 	40.8	 	 Q1: 2 	  Q8: 1 	  Q5: 0 	  Q2: 0 	  Q7: 2 	  Q3: 2
====================================================================================================================
TaskID 	 Duration 	 Skill 	 Predecessor IDs
1	 	 	27	 Q11: 2
2	 	 	19	 Q3: 2
3	 	 	36	 Q4: 2
4	 	 	16	 Q6: 2
5	 	 	35	 Q10: 1
6	 	 	39	 Q6: 2
7	 	 	31	 Q14: 1
8	 	 	15	 Q3: 1
9	 	 	23	 Q12: 1
10	 	 	33	 Q1: 0
11	 	 	20	 Q9: 0
12	 	 	17	 Q5: 2
13	 	 	19	 Q2: 0
14	 	 	39	 Q7: 2
15	 	 	15	 Q4: 0
16	 	 	18	 Q13: 1	 	3
17	 	 	18	 Q9: 0
18	 	 	32	 Q3: 1
19	 	 	13	 Q11: 1
20	 	 	35	 Q6: 1
21	 	 	40	 Q3: 2
22	 	 	27	 Q11: 0
23	 	 	11	 Q3: 1
24	 	 	40	 Q4: 1
25	 	 	20	 Q5: 0
26	 	 	36	 Q8: 2
27	 	 	30	 Q3: 0
28	 	 	39	 Q13: 2
29	 	 	33	 Q8: 1
30	 	 	9	 Q1: 0
31	 	 	23	 Q7: 2
32	 	 	25	 Q6: 1	 	19
33	 	 	26	 Q11: 0
34	 	 	12	 Q7: 0
35	 	 	11	 Q0: 1	 	32
36	 	 	14	 Q10: 2
37	 	 	32	 Q1: 1
38	 	 	10	 Q11: 2
39	 	 	19	 Q2: 1
40	 	 	31	 Q5: 0
41	 	 	13	 Q1: 0
42	 	 	28	 Q8: 1
43	 	 	28	 Q13: 0
44	 	 	9	 Q7: 2	 	34
45	 	 	14	 Q12: 0	 	33
46	 	 	33	 Q8: 0
47	 	 	12	 Q10: 1
48	 	 	13	 Q3: 1	 	40
49	 	 	40	 Q3: 1
50	 	 	34	 Q2: 1
51	 	 	12	 Q8: 2
52	 	 	20	 Q3: 2
53	 	 	22	 Q9: 0
54	 	 	23	 Q0: 1
55	 	 	9	 Q14: 1	 	38	25
56	 	 	31	 Q2: 0
57	 	 	16	 Q4: 2
58	 	 	30	 Q10: 2
59	 	 	19	 Q0: 1
60	 	 	16	 Q1: 1
61	 	 	29	 Q6: 2	 	59
62	 	 	16	 Q0: 1
63	 	 	30	 Q9: 1
64	 	 	26	 Q13: 0	 	39
65	 	 	12	 Q13: 1
66	 	 	39	 Q13: 2
67	 	 	10	 Q7: 0	 	35
68	 	 	37	 Q11: 1
69	 	 	31	 Q2: 1
70	 	 	33	 Q8: 0	 	47
71	 	 	36	 Q1: 0
72	 	 	40	 Q13: 0	 	69	43
73	 	 	35	 Q5: 0	 	68
74	 	 	17	 Q8: 1
75	 	 	36	 Q8: 2
76	 	 	20	 Q1: 2
77	 	 	25	 Q9: 0
78	 	 	31	 Q5: 0
79	 	 	37	 Q12: 0
80	 	 	32	 Q8: 0
81	 	 	16	 Q7: 2	 	1
82	 	 	15	 Q0: 1
83	 	 	32	 Q4: 1
84	 	 	10	 Q9: 0
85	 	 	13	 Q2: 2
86	 	 	26	 Q12: 0
87	 	 	35	 Q9: 2	 	4	30
88	 	 	31	 Q10: 0	 	40	37	27	72
89	 	 	23	 Q10: 2
90	 	 	13	 Q7: 1
91	 	 	24	 Q14: 2
92	 	 	35	 Q8: 1
93	 	 	38	 Q1: 2
94	 	 	21	 Q9: 0
95	 	 	15	 Q10: 1
96	 	 	36	 Q10: 0
97	 	 	17	 Q8: 0
98	 	 	35	 Q14: 2
99	 	 	18	 Q6: 2
100	 	 	20	 Q2: 1
====================================================================================================================
